g3 0 1 0	# problem 2987
 208 204 1 0 192	# vars, constraints, objectives, ranges, eqns
 90 0	# nonlinear constraints, objectives
 0 0	# network constraints: nonlinear, linear
 45 0 0	# nonlinear vars in constraints, objectives, both
 0 0 0 1	# linear network variables; functions; arith, flags
 0 0 0 0 0	# discrete variables: binary, integer, nonlinear (b,c,o)
 837 5	# nonzeros in Jacobian, gradients
 0 0	# max name lengths: constraints, variables
 0 0 0 0 0	# common exprs: b,c,o,c1,o1
b
0 0 1e+06
0 0 1e+06
0 0 1e+06
0 0 1e+06
0 0 1e+06
0 0 1e+06
0 0 1e+06
0 0 1e+06
0 0 1e+06
0 0 1e+06
0 0 1e+06
0 0 1e+06
0 0 1e+06
0 0 1e+06
0 0 1e+06
0 0 1e+06
0 0 1e+06
0 0 1e+06
0 0 1e+06
0 0 1e+06
0 0 1e+06
0 0 1e+06
0 0 1e+06
0 0 1e+06
0 0 1e+06
0 0 1e+06
0 0 1e+06
0 0 1e+06
0 0 1e+06
0 0 1e+06
0 0 1e+06
0 0 1e+06
0 0 1e+06
0 0 1e+06
0 0 1e+06
0 0 1e+06
0 0 1e+06
0 0 1e+06
0 0 1e+06
0 0 1e+06
0 0 1e+06
0 0 1e+06
0 0 1e+06
0 0 1e+06
0 0 1e+06
0 0 1e+06
0 0 1e+06
0 0 1e+06
0 0 1e+06
0 0 1e+06
0 0 1e+06
0 0 1e+06
0 0 1e+06
0 0 1e+06
0 0 1e+06
0 0 1e+06
0 0 1e+06
0 0 1e+06
0 0 1e+06
0 0 1e+06
0 0 1e+06
0 0 1e+06
0 0 1e+06
0 0 1e+06
0 0 1e+06
0 0 1e+06
0 0 1e+06
0 0 1e+06
0 0 1e+06
0 0 1e+06
0 0 1e+06
0 0 1e+06
0 0 1e+06
0 0 1e+06
0 0 1e+06
0 0 1e+06
0 0 1e+06
0 0 1e+06
0 0 1e+06
0 0 1e+06
0 0 1e+06
0 0 1e+06
0 0 1e+06
0 0 1e+06
0 0 1e+06
0 0 1e+06
0 0 1e+06
0 0 1e+06
0 0 1e+06
0 0 1e+06
0 0 1e+06
0 0 1e+06
0 0 1e+06
0 0 1e+06
0 0 1e+06
0 0 1e+06
0 0 1e+06
0 0 1e+06
0 0 1e+06
0 0 1e+06
0 0 1e+06
0 0 1e+06
0 0 1e+06
0 0 1e+06
0 0 1e+06
0 0 1e+06
0 0 1e+06
0 0 1e+06
0 0 1e+06
0 0 1e+06
0 0 1e+06
0 0 1e+06
0 0 1e+06
0 0 1e+06
0 0 1e+06
0 0 1e+06
0 0 1e+06
0 0 1e+06
0 0 1e+06
0 0 1e+06
0 0 1e+06
0 0 1e+06
0 0 1e+06
0 0 1e+06
0 0 1e+06
0 0 1e+06
0 0 1e+06
0 0 1e+06
0 0 1e+06
0 0 1e+06
0 0 1e+06
0 0 1e+06
0 0 1e+06
0 0 1e+06
0 0 1e+06
0 0 1e+06
0 0 1e+06
0 0 1e+06
0 0 1e+06
0 0 1e+06
0 0 1e+06
0 0 1e+06
0 0 1e+06
0 0 1e+06
0 0 1e+06
0 0 1e+06
0 0 1e+06
0 0 1e+06
0 0 1e+06
0 0 1e+06
0 0 1e+06
0 0 1e+06
0 0 1e+06
0 0 1e+06
0 0 1e+06
0 0 1e+06
0 0 1e+06
0 0 1e+06
0 0 1e+06
0 0 1e+06
0 0 1e+06
0 0 1e+06
0 0 1e+06
0 0 1e+06
0 0 1e+06
0 0 1e+06
0 0 1e+06
0 0 1e+06
0 0 1e+06
0 0 1e+06
0 0 1e+06
0 0 1e+06
0 0 1e+06
0 0 1e+06
0 0 1e+06
0 0 1e+06
0 0 1e+06
0 0 1e+06
0 0 1e+06
0 0 1e+06
0 0 1e+06
0 0 1e+06
0 0 1e+06
0 0 1e+06
0 0 1e+06
0 0 1e+06
0 0 1e+06
0 0 1e+06
0 0 1e+06
0 0 1e+06
0 0 1e+06
0 0 1e+06
0 0 1e+06
0 0 1e+06
0 0 1e+06
0 0 1e+06
0 0 1e+06
0 0 1e+06
0 0 1e+06
0 0 1e+06
0 0 1e+06
0 0 1e+06
0 0 1e+06
0 0 1e+06
0 0 1e+06
0 0 1e+06
0 0 1e+06
0 0 1e+06
r
4 0
4 0
4 0
4 0
4 0
4 0
4 0
4 0
4 0
4 0
4 0
4 0
4 0
4 0
4 0
4 0
4 0
4 0
4 0
4 0
4 0
4 0
4 0
4 0
4 0
4 0
4 0
4 0
4 0
4 0
4 0
4 0
4 0
4 0
4 0
4 0
4 0
4 0
4 0
4 0
4 0
4 0
4 0
4 0
4 0
4 0
4 0
4 0
4 0
4 0
4 0
4 0
4 0
4 0
4 0
4 0
4 0
4 0
4 0
4 0
4 0
4 0
4 0
4 0
4 0
4 0
4 0
4 0
4 0
4 0
4 0
4 0
4 0
4 0
4 0
4 0
4 0
4 0
4 0
4 0
4 0
4 0
4 0
4 0
4 0
4 0
4 0
4 0
4 0
4 0
4 -50
4 -120
4 -70
4 0
4 0
4 0
4 0
4 0
4 0
4 0
4 0
4 0
4 0
4 0
4 -500
4 -10000
4 -13200
4 -16800
4 -7000
4 -1750
4 0
4 0
4 0
4 0
4 0
4 0
4 0
4 0
4 0
4 0
4 0
4 0
4 0
4 0
4 0
4 0
4 0
4 0
4 0
4 0
4 0
4 0
4 0
4 0
4 0
4 0
4 0
4 0
4 0
4 0
4 0
4 0
4 0
4 0
4 0
4 0
4 0
4 0
4 0
4 0
4 0
4 0
4 0
4 0
4 0
4 0
4 0
4 0
4 0
4 0
4 0
4 0
4 0
4 0
4 1
4 1
4 1
1 0
1 0
1 0
1 0
1 0
1 0
1 0
1 0
1 0
1 0
4 0
4 0
4 0
4 0
4 0
4 0
4 0
4 0
4 0
4 0
4 0
4 0
4 0
4 0
4 0
4 0
4 0
4 0
4 0
4 0
4 1
4 1
4 1
4 1
4 1
1 0
1 0
C0
o2
v15
v5
C1
o2
v15
v6
C2
o2
v16
v5
C3
o2
v16
v6
C4
o2
v17
v5
C5
o2
v17
v6
C6
o2
v18
v5
C7
o2
v18
v6
C8
o2
v19
v5
C9
o2
v19
v6
C10
o2
v21
v7
C11
o2
v21
v8
C12
o2
v22
v7
C13
o2
v22
v8
C14
o2
v23
v7
C15
o2
v23
v8
C16
o2
v24
v7
C17
o2
v24
v8
C18
o2
v25
v7
C19
o2
v25
v8
C20
o2
v27
v9
C21
o2
v27
v10
C22
o2
v28
v9
C23
o2
v28
v10
C24
o2
v29
v9
C25
o2
v29
v10
C26
o2
v30
v9
C27
o2
v30
v10
C28
o2
v31
v9
C29
o2
v31
v10
C30
o2
v33
v11
C31
o2
v33
v12
C32
o2
v34
v11
C33
o2
v34
v12
C34
o2
v35
v11
C35
o2
v35
v12
C36
o2
v36
v11
C37
o2
v36
v12
C38
o2
v37
v11
C39
o2
v37
v12
C40
o2
v39
v13
C41
o2
v39
v14
C42
o2
v40
v13
C43
o2
v40
v14
C44
o2
v41
v13
C45
o2
v41
v14
C46
o2
v42
v13
C47
o2
v42
v14
C48
o2
v43
v13
C49
o2
v43
v14
C50
o2
v20
v5
C51
o2
v20
v6
C52
o2
v26
v7
C53
o2
v26
v8
C54
o2
v32
v9
C55
o2
v32
v10
C56
o2
v38
v11
C57
o2
v38
v12
C58
o2
v44
v13
C59
o2
v44
v14
C60
o2
v15
v0
C61
o2
v16
v0
C62
o2
v17
v0
C63
o2
v18
v0
C64
o2
v19
v0
C65
o2
v21
v1
C66
o2
v22
v1
C67
o2
v23
v1
C68
o2
v24
v1
C69
o2
v25
v1
C70
o2
v27
v2
C71
o2
v28
v2
C72
o2
v29
v2
C73
o2
v30
v2
C74
o2
v31
v2
C75
o2
v33
v3
C76
o2
v34
v3
C77
o2
v35
v3
C78
o2
v36
v3
C79
o2
v37
v3
C80
o2
v39
v4
C81
o2
v40
v4
C82
o2
v41
v4
C83
o2
v42
v4
C84
o2
v43
v4
C85
o2
v20
v0
C86
o2
v26
v1
C87
o2
v32
v2
C88
o2
v38
v3
C89
o2
v44
v4
C90
n0
C91
n0
C92
n0
C93
n0
C94
n0
C95
n0
C96
n0
C97
n0
C98
n0
C99
n0
C100
n0
C101
n0
C102
n0
C103
n0
C104
n0
C105
n0
C106
n0
C107
n0
C108
n0
C109
n0
C110
n0
C111
n0
C112
n0
C113
n0
C114
n0
C115
n0
C116
n0
C117
n0
C118
n0
C119
n0
C120
n0
C121
n0
C122
n0
C123
n0
C124
n0
C125
n0
C126
n0
C127
n0
C128
n0
C129
n0
C130
n0
C131
n0
C132
n0
C133
n0
C134
n0
C135
n0
C136
n0
C137
n0
C138
n0
C139
n0
C140
n0
C141
n0
C142
n0
C143
n0
C144
n0
C145
n0
C146
n0
C147
n0
C148
n0
C149
n0
C150
n0
C151
n0
C152
n0
C153
n0
C154
n0
C155
n0
C156
n0
C157
n0
C158
n0
C159
n0
C160
n0
C161
n0
C162
n0
C163
n0
C164
n0
C165
n0
C166
n0
C167
n0
C168
n0
C169
n0
C170
n0
C171
n0
C172
n0
C173
n0
C174
n0
C175
n0
C176
n0
C177
n0
C178
n0
C179
n0
C180
n0
C181
n0
C182
n0
C183
n0
C184
n0
C185
n0
C186
n0
C187
n0
C188
n0
C189
n0
C190
n0
C191
n0
C192
n0
C193
n0
C194
n0
C195
n0
C196
n0
C197
n0
C198
n0
C199
n0
C200
n0
C201
n0
C202
n0
C203
n0
O0 0
n0
k207
10
20
30
40
50
58
66
74
82
90
98
106
114
122
130
134
138
142
146
150
154
158
162
166
170
174
178
182
186
190
194
198
202
206
210
214
218
222
226
230
234
238
242
246
250
253
256
259
262
265
268
271
274
277
280
283
286
289
292
295
298
301
304
307
310
313
316
319
322
325
328
331
334
337
340
343
346
349
352
355
358
361
364
367
370
373
376
379
382
385
388
391
394
397
400
404
408
412
416
420
423
427
431
435
439
443
446
450
454
458
462
466
469
473
477
481
485
489
492
496
500
504
508
512
515
519
523
527
531
535
539
543
547
551
555
559
563
567
571
575
579
583
587
591
595
599
603
607
611
615
619
623
627
631
635
639
643
647
651
655
659
663
667
671
675
679
683
687
691
695
699
703
707
711
715
719
723
727
731
735
739
743
747
751
755
759
763
767
771
775
779
783
787
791
795
799
803
807
810
813
816
819
822
825
828
831
834
J0 3
5 0
15 0
148 -1
J1 3
6 0
15 0
153 -1
J2 3
5 0
16 0
158 -1
J3 3
6 0
16 0
163 -1
J4 3
5 0
17 0
168 -1
J5 3
6 0
17 0
173 -1
J6 3
5 0
18 0
178 -1
J7 3
6 0
18 0
183 -1
J8 3
5 0
19 0
188 -1
J9 3
6 0
19 0
193 -1
J10 3
7 0
21 0
149 -1
J11 3
8 0
21 0
154 -1
J12 3
7 0
22 0
159 -1
J13 3
8 0
22 0
164 -1
J14 3
7 0
23 0
169 -1
J15 3
8 0
23 0
174 -1
J16 3
7 0
24 0
179 -1
J17 3
8 0
24 0
184 -1
J18 3
7 0
25 0
189 -1
J19 3
8 0
25 0
194 -1
J20 3
9 0
27 0
150 -1
J21 3
10 0
27 0
155 -1
J22 3
9 0
28 0
160 -1
J23 3
10 0
28 0
165 -1
J24 3
9 0
29 0
170 -1
J25 3
10 0
29 0
175 -1
J26 3
9 0
30 0
180 -1
J27 3
10 0
30 0
185 -1
J28 3
9 0
31 0
190 -1
J29 3
10 0
31 0
195 -1
J30 3
11 0
33 0
151 -1
J31 3
12 0
33 0
156 -1
J32 3
11 0
34 0
161 -1
J33 3
12 0
34 0
166 -1
J34 3
11 0
35 0
171 -1
J35 3
12 0
35 0
176 -1
J36 3
11 0
36 0
181 -1
J37 3
12 0
36 0
186 -1
J38 3
11 0
37 0
191 -1
J39 3
12 0
37 0
196 -1
J40 3
13 0
39 0
152 -1
J41 3
14 0
39 0
157 -1
J42 3
13 0
40 0
162 -1
J43 3
14 0
40 0
167 -1
J44 3
13 0
41 0
172 -1
J45 3
14 0
41 0
177 -1
J46 3
13 0
42 0
182 -1
J47 3
14 0
42 0
187 -1
J48 3
13 0
43 0
192 -1
J49 3
14 0
43 0
197 -1
J50 3
5 0
20 0
198 -1
J51 3
6 0
20 0
199 -1
J52 3
7 0
26 0
200 -1
J53 3
8 0
26 0
201 -1
J54 3
9 0
32 0
202 -1
J55 3
10 0
32 0
203 -1
J56 3
11 0
38 0
204 -1
J57 3
12 0
38 0
205 -1
J58 3
13 0
44 0
206 -1
J59 3
14 0
44 0
207 -1
J60 3
0 0
15 0
63 -1
J61 3
0 0
16 0
68 -1
J62 3
0 0
17 0
73 -1
J63 3
0 0
18 0
78 -1
J64 3
0 0
19 0
83 -1
J65 3
1 0
21 0
64 -1
J66 3
1 0
22 0
69 -1
J67 3
1 0
23 0
74 -1
J68 3
1 0
24 0
79 -1
J69 3
1 0
25 0
84 -1
J70 3
2 0
27 0
65 -1
J71 3
2 0
28 0
70 -1
J72 3
2 0
29 0
75 -1
J73 3
2 0
30 0
80 -1
J74 3
2 0
31 0
85 -1
J75 3
3 0
33 0
66 -1
J76 3
3 0
34 0
71 -1
J77 3
3 0
35 0
76 -1
J78 3
3 0
36 0
81 -1
J79 3
3 0
37 0
86 -1
J80 3
4 0
39 0
67 -1
J81 3
4 0
40 0
72 -1
J82 3
4 0
41 0
77 -1
J83 3
4 0
42 0
82 -1
J84 3
4 0
43 0
87 -1
J85 3
0 0
20 0
88 -1
J86 3
1 0
26 0
89 -1
J87 3
2 0
32 0
90 -1
J88 3
3 0
38 0
91 -1
J89 3
4 0
44 0
92 -1
J90 6
45 -1
46 -1
47 -1
48 -1
49 -1
50 -1
J91 6
51 -1
52 -1
53 -1
54 -1
55 -1
56 -1
J92 6
57 -1
58 -1
59 -1
60 -1
61 -1
62 -1
J93 9
0 1
46 -1
52 -1
58 -1
63 -1
64 -1
65 -1
66 -1
67 -1
J94 9
1 1
47 -1
53 -1
59 -1
68 -1
69 -1
70 -1
71 -1
72 -1
J95 9
2 1
48 -1
54 -1
60 -1
73 -1
74 -1
75 -1
76 -1
77 -1
J96 9
3 1
49 -1
55 -1
61 -1
78 -1
79 -1
80 -1
81 -1
82 -1
J97 9
4 1
50 -1
56 -1
62 -1
83 -1
84 -1
85 -1
86 -1
87 -1
J98 7
0 1
63 -1
68 -1
73 -1
78 -1
83 -1
88 -1
J99 7
1 1
64 -1
69 -1
74 -1
79 -1
84 -1
89 -1
J100 7
2 1
65 -1
70 -1
75 -1
80 -1
85 -1
90 -1
J101 7
3 1
66 -1
71 -1
76 -1
81 -1
86 -1
91 -1
J102 7
4 1
67 -1
72 -1
77 -1
82 -1
87 -1
92 -1
J103 9
45 -1
51 -1
57 -1
88 -1
89 -1
90 -1
91 -1
92 -1
93 1
J104 6
94 -1
95 -1
96 -1
97 -1
98 -1
99 -1
J105 6
100 -1
101 -1
102 -1
103 -1
104 -1
105 -1
J106 6
106 -1
107 -1
108 -1
109 -1
110 -1
111 -1
J107 6
112 -1
113 -1
114 -1
115 -1
116 -1
117 -1
J108 6
118 -1
119 -1
120 -1
121 -1
122 -1
123 -1
J109 6
124 -1
125 -1
126 -1
127 -1
128 -1
129 -1
J110 2
95 -1
130 500
J111 2
101 -1
130 10000
J112 2
96 -1
131 500
J113 2
102 -1
131 10000
J114 2
97 -1
132 500
J115 2
103 -1
132 10000
J116 2
98 -1
133 500
J117 2
104 -1
133 10000
J118 2
99 -1
134 500
J119 2
105 -1
134 10000
J120 2
107 -1
135 13200
J121 2
113 -1
135 16800
J122 2
108 -1
136 13200
J123 2
114 -1
136 16800
J124 2
109 -1
137 13200
J125 2
115 -1
137 16800
J126 2
110 -1
138 13200
J127 2
116 -1
138 16800
J128 2
111 -1
139 13200
J129 2
117 -1
139 16800
J130 2
119 -1
140 7000
J131 2
125 -1
140 1750
J132 2
120 -1
141 7000
J133 2
126 -1
141 1750
J134 2
121 -1
142 7000
J135 2
127 -1
142 1750
J136 2
122 -1
143 7000
J137 2
128 -1
143 1750
J138 2
123 -1
144 7000
J139 2
129 -1
144 1750
J140 2
94 -1
145 500
J141 2
100 -1
145 10000
J142 2
106 -1
146 13200
J143 2
112 -1
146 16800
J144 2
118 -1
147 7000
J145 2
124 -1
147 1750
J146 2
46 -1
130 50
J147 2
47 -1
131 50
J148 2
48 -1
132 50
J149 2
49 -1
133 50
J150 2
50 -1
134 50
J151 2
52 -1
135 120
J152 2
53 -1
136 120
J153 2
54 -1
137 120
J154 2
55 -1
138 120
J155 2
56 -1
139 120
J156 2
58 -1
140 70
J157 2
59 -1
141 70
J158 2
60 -1
142 70
J159 2
61 -1
143 70
J160 2
62 -1
144 70
J161 2
45 -1
145 50
J162 2
51 -1
146 120
J163 2
57 -1
147 70
J164 6
130 1
131 1
132 1
133 1
134 1
145 1
J165 6
135 1
136 1
137 1
138 1
139 1
146 1
J166 6
140 1
141 1
142 1
143 1
144 1
147 1
J167 9
0 -145
95 1
107 1
119 1
148 1
149 1
150 1
151 1
152 1
J168 9
0 -400
101 1
113 1
125 1
153 1
154 1
155 1
156 1
157 1
J169 9
1 -110
96 1
108 1
120 1
158 1
159 1
160 1
161 1
162 1
J170 9
1 -90
102 1
114 1
126 1
163 1
164 1
165 1
166 1
167 1
J171 9
2 -90
97 1
109 1
121 1
168 1
169 1
170 1
171 1
172 1
J172 9
2 -100
103 1
115 1
127 1
173 1
174 1
175 1
176 1
177 1
J173 9
3 -200
98 1
110 1
122 1
178 1
179 1
180 1
181 1
182 1
J174 9
3 -90
104 1
116 1
128 1
183 1
184 1
185 1
186 1
187 1
J175 9
4 -50
99 1
111 1
123 1
188 1
189 1
190 1
191 1
192 1
J176 9
4 -80
105 1
117 1
129 1
193 1
194 1
195 1
196 1
197 1
J177 9
5 -1
95 0.1
107 0.1
119 0.1
148 0.1
149 0.1
150 0.1
151 0.1
152 0.1
J178 9
6 -1
101 1
113 1
125 1
153 1
154 1
155 1
156 1
157 1
J179 9
7 -1
96 0.3
108 0.3
120 0.3
158 0.3
159 0.3
160 0.3
161 0.3
162 0.3
J180 9
8 -1
102 0.1
114 0.1
126 0.1
163 0.1
164 0.1
165 0.1
166 0.1
167 0.1
J181 9
9 -1
97 1
109 1
121 1
168 1
169 1
170 1
171 1
172 1
J182 9
10 -1
103 0.2
115 0.2
127 0.2
173 0.2
174 0.2
175 0.2
176 0.2
177 0.2
J183 9
11 -1
98 0.5
110 0.5
122 0.5
178 0.5
179 0.5
180 0.5
181 0.5
182 0.5
J184 9
12 -1
104 1
116 1
128 1
183 1
184 1
185 1
186 1
187 1
J185 9
13 -1
99 0.35
111 0.35
123 0.35
188 0.35
189 0.35
190 0.35
191 0.35
192 0.35
J186 9
14 -1
105 0.4
117 0.4
129 0.4
193 0.4
194 0.4
195 0.4
196 0.4
197 0.4
J187 7
5 1
148 -1
158 -1
168 -1
178 -1
188 -1
198 -1
J188 7
6 1
153 -1
163 -1
173 -1
183 -1
193 -1
199 -1
J189 7
7 1
149 -1
159 -1
169 -1
179 -1
189 -1
200 -1
J190 7
8 1
154 -1
164 -1
174 -1
184 -1
194 -1
201 -1
J191 7
9 1
150 -1
160 -1
170 -1
180 -1
190 -1
202 -1
J192 7
10 1
155 -1
165 -1
175 -1
185 -1
195 -1
203 -1
J193 7
11 1
151 -1
161 -1
171 -1
181 -1
191 -1
204 -1
J194 7
12 1
156 -1
166 -1
176 -1
186 -1
196 -1
205 -1
J195 7
13 1
152 -1
162 -1
172 -1
182 -1
192 -1
206 -1
J196 7
14 1
157 -1
167 -1
177 -1
187 -1
197 -1
207 -1
J197 6
15 1
16 1
17 1
18 1
19 1
20 1
J198 6
21 1
22 1
23 1
24 1
25 1
26 1
J199 6
27 1
28 1
29 1
30 1
31 1
32 1
J200 6
33 1
34 1
35 1
36 1
37 1
38 1
J201 6
39 1
40 1
41 1
42 1
43 1
44 1
J202 9
93 -10
94 1
106 1
118 1
198 1
200 1
202 1
204 1
206 1
J203 9
93 -5
100 1
112 1
124 1
199 1
201 1
203 1
205 1
207 1
G0 5
0 1
1 1
2 1
3 1
4 1
